problems/csplib-prob006-decision/GolombRuler-models/01_noch_lvlPruned/O0/minion/model_1-06-0050-solution000001.solution
language Essence 1.3

letting Ticks be {0, 39, 42, 43, 48, 50}
