problems/csplib-prob006-decision/GolombRuler-models/compact/O2/minion/model_1-06-0050-solution000001.eprime-solution
language ESSENCE' 1.0

letting Ticks_Occurrence be
        [true, false, false, false, false, false, false, false, false, false, false, false, false, false, false, false,
         false, false, false, false, false, false, false, false, false, false, false, false, false, false, false, false,
         false, false, false, false, false, false, false, true, false, false, true, true, false, false, false, false,
         true, false, true;
             int(0..50)]
